4765276.0
1799
0 1 3 4 7 8 9 10 11 12 13 14 15 16 17 18 19 20 22 23 24 27 28 29 30 31 32 34 36 37 38 39 40 41 42 43 45 46 48 49 50 52 53 54 55 56 57 58 60 61 62 63 64 66 67 68 69 70 71 72 73 74 76 77 78 79 80 81 83 84 85 86 87 88 89 90 92 93 95 96 97 98 99 